
Gurobi 6.5.2 (linux64) logging started Wed Mar 15 12:50:59 2017


Gurobi 6.5.2 (linux64) logging started Wed Mar 15 12:50:59 2017

Optimize a model with 201 rows, 1585 columns and 4249 nonzeros
Coefficient statistics:
  Matrix range    [1e+00, 2e+00]
  Objective range [1e+00, 1e+02]
  Bounds range    [1e+00, 1e+00]
  RHS range       [1e+00, 1e+00]
Presolve removed 47 rows and 1 columns
Presolve time: 0.01s
Presolved: 154 rows, 1584 columns, 3722 nonzeros
Variable types: 0 continuous, 1584 integer (1584 binary)

Root relaxation: objective 1.004250e+03, 111 iterations, 0.00 seconds

    Nodes    |    Current Node    |     Objective Bounds      |     Work
 Expl Unexpl |  Obj  Depth IntInf | Incumbent    BestBd   Gap | It/Node Time

     0     0 1004.25000    0   44          - 1004.25000      -     -    0s
     0     0 1080.75000    0   18          - 1080.75000      -     -    0s
     0     0 1088.30000    0   30          - 1088.30000      -     -    0s
     0     0 1088.35714    0   25          - 1088.35714      -     -    0s
     0     0 1097.87500    0   46          - 1097.87500      -     -    0s
     0     0 1098.50000    0   48          - 1098.50000      -     -    0s
H    0     0                    1161.0000000 1098.50000  5.38%     -    0s
     0     0 1098.50000    0   42 1161.00000 1098.50000  5.38%     -    0s
     0     0 1098.50000    0   31 1161.00000 1098.50000  5.38%     -    0s
     0     0 1098.75000    0   45 1161.00000 1098.75000  5.36%     -    0s
     0     0 1107.38182    0   34 1161.00000 1107.38182  4.62%     -    0s
     0     0 1108.33566    0   38 1161.00000 1108.33566  4.54%     -    0s
     0     0 1108.90441    0   71 1161.00000 1108.90441  4.49%     -    0s
     0     0 1108.90441    0   71 1161.00000 1108.90441  4.49%     -    0s
     0     0 1108.90441    0   42 1161.00000 1108.90441  4.49%     -    0s
     0     0 1108.90441    0   21 1161.00000 1108.90441  4.49%     -    0s
     0     0 1108.90441    0   48 1161.00000 1108.90441  4.49%     -    0s
     0     0 1108.90441    0   57 1161.00000 1108.90441  4.49%     -    0s
     0     0 1109.27778    0   64 1161.00000 1109.27778  4.45%     -    0s
     0     0 1109.72159    0   49 1161.00000 1109.72159  4.42%     -    0s
     0     2 1109.72159    0   49 1161.00000 1109.72159  4.42%     -    0s
H 1065   741                    1160.0000000 1119.09287  3.53%   5.4    1s
H 1106   732                    1156.0000000 1131.64972  2.11%   6.3    4s
  1130   750 1149.00000   53   68 1156.00000 1132.29275  2.05%   6.6    5s
* 4066  1278              72    1155.0000000 1137.12500  1.55%   7.5    7s
* 5918  1627              72    1153.0000000 1139.18590  1.20%   7.3    8s
* 6499  1338              73    1151.0000000 1140.00000  0.96%   7.3    8s
* 6978  1149              72    1150.0000000 1140.80000  0.80%   7.3    8s

Cutting planes:
  Gomory: 47
  Cover: 98
  MIR: 1
  Flow cover: 11
  Zero half: 22
  Lazy constraints: 360

Explored 9913 nodes (70029 simplex iterations) in 9.93 seconds
Thread count was 8 (of 8 available processors)

Optimal solution found (tolerance 1.00e-04)
Best objective 1.150000000000e+03, best bound 1.150000000000e+03, gap 0.0%
